%chk=water.chk
%mem=8GB
%nprocshared=4
#p opt freq b3lyp/6-31g(d)

Water molecule test

0 1
O   0.000000   0.000000   0.117300
H   0.000000   0.757200  -0.469200
H   0.000000  -0.757200  -0.469200

